SCIP version 5.0.0 [precision: 8 byte] [memory: block] [mode: optimized] [LP solver: NONE] [GitHash: 3bbd232]
Copyright (C) 2002-2017 Konrad-Zuse-Zentrum fuer Informationstechnik Berlin (ZIB)

External codes: 
  Readline EditLine w  GNU library for command line editing (gnu.org/s/readline)
  CppAD 20160000.1     Algorithmic Differentiation of C++ algorithms developed by B. Bell (www.coin-or.org/CppAD)
  ZLIB 1.2.5           General purpose compression library by J. Gailly and M. Adler (zlib.net)
  GMP 6.1.2            GNU Multiple Precision Arithmetic Library developed by T. Granlund (gmplib.org)

user parameter file <scip.set> not found - using default parameters

read problem <../../Split_data/output/statH/0/0_sample_statH.logreg>
============

File name	:	../../Split_data/output/statH/0/0_sample_statH.logreg
Problem name 	:	0_sample_statH
Number of data	:	216
Number of var	:	25
The given data has linear dependence
7 sets of column vector are linearly dependent:
{ 3 4}, { 5 6 7 8}, { 11 12}, { 13 14 15}, { 17 18}, { 20 21 22}, { 24 25 26}, 

[dim=1] time: 0.00441
[dim=2] time: 0.009365
[dim=3] time: 0.013805
[dim=4] time: 0.018053
[dim=5] time: 0.0222
[dim=6] time: 0.028121
[dim=7] time: 0.033702
[dim=8] time: 0.038695
[dim=9] time: 0.042112
[dim=10] Time of forward = 0.045774sec.
AIC: 167.256
k: 9

[dim=18] time: 0.007264
[dim=17] time: 0.011691
[dim=16] time: 0.015216
[dim=15] time: 0.017976
[dim=14] time: 0.023363
[dim=13] time: 0.028487
[dim=12] time: 0.031362
[dim=11] time: 0.033801
[dim=10] time: 0.03635
[dim=9] Time of backward = 0.038576sec.
AIC: 167.723
k: 10
